DATASET = "thpack2";
INSTANCE = "017";

WIDTH = 233;
HEIGHT = 220;
LENGTH = 587;

NO_OF_SHAPES = 5;
size = [|
  72,49,35 |
  75,66,47 |
  78,30,22 |
  119,79,79 |
  76,65,62 |
|];

verticality = [|
  0,1,1 |
  1,1,1 |
  0,1,1 |
  1,1,1 |
  1,1,1 |
|];

box_count = [
  22,
  23,
  27,
  19,
  21,
];
